p cnf 45 74
1 4 7 10 13 16 19 22 25 28 31 34 37 40 43 0
2 5 8 11 14 17 20 23 26 29 32 35 38 41 44 0
3 6 9 12 15 18 21 24 27 30 33 36 39 42 45 0
1 2 3 0
-1 -2 0
-1 -3 0
-2 -3 0
-1 -19 0
-2 -20 0
-3 -21 0
4 5 6 0
-4 -5 0
-4 -6 0
-5 -6 0
7 8 9 0
-7 -8 0
-7 -9 0
-8 -9 0
10 11 12 0
-10 -11 0
-10 -12 0
-11 -12 0
13 14 15 0
-13 -14 0
-13 -15 0
-14 -15 0
16 17 18 0
-16 -17 0
-16 -18 0
-17 -18 0
19 20 21 0
-19 -20 0
-19 -21 0
-20 -21 0
22 23 24 0
-22 -23 0
-22 -24 0
-23 -24 0
25 26 27 0
-25 -26 0
-25 -27 0
-26 -27 0
28 29 30 0
-28 -29 0
-28 -30 0
-29 -30 0
31 32 33 0
-31 -32 0
-31 -33 0
-32 -33 0
34 35 36 0
-34 -35 0
-34 -36 0
-35 -36 0
34 35 36 0
34 35 45 0
34 44 36 0
34 44 45 0
43 35 36 0
43 35 45 0
43 44 36 0
43 44 45 0
37 38 39 0
-37 -38 0
-37 -39 0
-38 -39 0
40 41 42 0
-40 -41 0
-40 -42 0
-41 -42 0
43 44 45 0
-43 -44 0
-43 -45 0
-44 -45 0
